c description: Random 3-CNF over 11 variables and 22 clauses
p cnf 11 22
-3 5 8 0
-2 -4 6 0
-3 -6 -9 0
7 8 11 0
-3 -4 -11 0
-4 7 10 0
4 -8 -11 0
-3 5 -8 0
2 -5 -11 0
-1 -5 -11 0
-3 -5 -7 0
-3 5 7 0
2 -8 11 0
2 3 6 0
-3 9 11 0
3 8 11 0
5 -7 9 0
1 7 10 0
3 -8 9 0
-7 -8 11 0
-7 8 -10 0
4 6 -7 0